NAME 
ROWS
 N  OBJ
 L  R0      
 E  R1      
 E  R2      
 E  R3      
 E  R4      
 E  R5      
 E  R6      
 E  R7      
 E  R8      
 E  R9      
 E  R10     
 E  R11     
 E  R12     
 E  R13     
 E  R14     
 E  R15     
 E  R16     
 E  R17     
 E  R18     
 E  R19     
 E  R20     
 E  R21     
 E  R22     
 E  R23     
 E  R24     
 E  R25     
 E  R26     
 E  R27     
 E  R28     
 E  R29     
 E  R30     
 E  R31     
 E  R32     
 E  R33     
 E  R34     
 E  R35     
 E  R36     
 E  R37     
 E  R38     
 E  R39     
 E  R40     
COLUMNS
    MARKER    'MARKER'                 'INTORG'
    I0(3)     OBJ       160
    I0(3)     R0        -194
    I0(3)     R1        2
    I0(3)     R40       1
    I1(3)     OBJ       -46
    I1(3)     R0        178
    I1(3)     R2        14
    I1(3)     R40       1
    I2(3)     OBJ       185
    I2(3)     R0        -13
    I2(3)     R3        2
    I2(3)     R40       1
    I3(3)     OBJ       -13
    I3(3)     R0        41
    I3(3)     R4        12
    I3(3)     R40       1
    I4(3)     OBJ       148
    I4(3)     R0        -28
    I4(3)     R5        13
    I4(3)     R40       1
    I5(3)     OBJ       -128
    I5(3)     R0        -123
    I5(3)     R6        12
    I5(3)     R40       1
    I6(3)     OBJ       136
    I6(3)     R0        -187
    I6(3)     R7        11
    I6(3)     R40       1
    I7(3)     OBJ       176
    I7(3)     R0        -125
    I7(3)     R8        1
    I7(3)     R40       1
    I8(3)     OBJ       -47
    I8(3)     R0        80
    I8(3)     R9        16
    I8(3)     R40       1
    I9(3)     OBJ       4
    I9(3)     R0        -110
    I9(3)     R10       2
    I9(3)     R40       1
    I10(3)    OBJ       39
    I10(3)    R0        30
    I10(3)    R11       2
    I10(3)    R40       1
    I11(3)    OBJ       71
    I11(3)    R0        -8
    I11(3)    R12       10
    I11(3)    R40       1
    I12(3)    OBJ       -109
    I12(3)    R0        186
    I12(3)    R13       13
    I12(3)    R40       1
    I13(3)    OBJ       -113
    I13(3)    R0        -132
    I13(3)    R14       3
    I13(3)    R40       1
    I14(3)    OBJ       -132
    I14(3)    R0        59
    I14(3)    R15       11
    I14(3)    R40       1
    I15(3)    OBJ       118
    I15(3)    R0        74
    I15(3)    R16       11
    I15(3)    R40       1
    I16(3)    OBJ       -181
    I16(3)    R0        22
    I16(3)    R17       2
    I16(3)    R40       1
    I17(2)    OBJ       59
    I17(2)    R0        -82
    I17(2)    R40       1
    I18(3)    OBJ       -164
    I18(3)    R0        115
    I18(3)    R19       12
    I18(3)    R40       1
    I19(3)    OBJ       167
    I19(3)    R0        62
    I19(3)    R20       7
    I19(3)    R40       1
    I20(3)    OBJ       170
    I20(3)    R0        79
    I20(3)    R21       17
    I20(3)    R40       1
    I21(3)    OBJ       91
    I21(3)    R0        -41
    I21(3)    R22       15
    I21(3)    R40       1
    I22(3)    OBJ       140
    I22(3)    R0        -101
    I22(3)    R23       1
    I22(3)    R40       1
    I23(2)    OBJ       151
    I23(2)    R0        -13
    I23(2)    R40       1
    I24(3)    OBJ       -66
    I24(3)    R0        -4
    I24(3)    R25       12
    I24(3)    R40       1
    I25(3)    OBJ       122
    I25(3)    R0        -199
    I25(3)    R26       1
    I25(3)    R40       1
    I26(3)    OBJ       181
    I26(3)    R0        16
    I26(3)    R27       14
    I26(3)    R40       1
    I27(3)    OBJ       62
    I27(3)    R0        10
    I27(3)    R28       3
    I27(3)    R40       1
    I28(3)    OBJ       -23
    I28(3)    R0        -194
    I28(3)    R29       1
    I28(3)    R40       1
    I29(2)    OBJ       -193
    I29(2)    R0        -193
    I29(2)    R40       1
    I30(3)    OBJ       -25
    I30(3)    R0        -186
    I30(3)    R31       10
    I30(3)    R40       1
    I31(3)    OBJ       -56
    I31(3)    R0        -116
    I31(3)    R32       8
    I31(3)    R40       1
    I32(3)    OBJ       -129
    I32(3)    R0        -130
    I32(3)    R33       16
    I32(3)    R40       1
    I33(3)    OBJ       -77
    I33(3)    R0        134
    I33(3)    R34       1
    I33(3)    R40       1
    I34(3)    OBJ       -190
    I34(3)    R0        116
    I34(3)    R35       7
    I34(3)    R40       1
    I35(3)    OBJ       58
    I35(3)    R0        35
    I35(3)    R36       6
    I35(3)    R40       1
    I36(3)    OBJ       49
    I36(3)    R0        167
    I36(3)    R37       8
    I36(3)    R40       1
    I37(2)    OBJ       -155
    I37(2)    R0        181
    I37(2)    R40       1
    MARKER    'MARKER'                 'INTEND'
    C38(38)   OBJ       -3
    C38(38)   R0        5
    C38(38)   R1        15
    C38(38)   R2        4
    C38(38)   R3        15
    C38(38)   R4        13
    C38(38)   R5        10
    C38(38)   R6        12
    C38(38)   R7        7
    C38(38)   R8        10
    C38(38)   R9        8
    C38(38)   R10       4
    C38(38)   R11       17
    C38(38)   R12       12
    C38(38)   R13       10
    C38(38)   R14       11
    C38(38)   R15       14
    C38(38)   R16       9
    C38(38)   R18       19
    C38(38)   R19       7
    C38(38)   R21       4
    C38(38)   R22       10
    C38(38)   R23       7
    C38(38)   R24       18
    C38(38)   R25       9
    C38(38)   R26       16
    C38(38)   R27       4
    C38(38)   R28       7
    C38(38)   R29       14
    C38(38)   R30       18
    C38(38)   R31       19
    C38(38)   R32       16
    C38(38)   R33       18
    C38(38)   R34       9
    C38(38)   R35       10
    C38(38)   R36       8
    C38(38)   R37       18
    C38(38)   R38       11
    C38(38)   R39       17
    C39(37)   OBJ       -7
    C39(37)   R0        -5
    C39(37)   R1        10
    C39(37)   R2        16
    C39(37)   R3        19
    C39(37)   R4        2
    C39(37)   R5        17
    C39(37)   R6        4
    C39(37)   R7        1
    C39(37)   R8        13
    C39(37)   R10       9
    C39(37)   R11       9
    C39(37)   R12       3
    C39(37)   R13       18
    C39(37)   R14       11
    C39(37)   R15       6
    C39(37)   R16       7
    C39(37)   R17       2
    C39(37)   R18       16
    C39(37)   R19       1
    C39(37)   R20       6
    C39(37)   R21       -1
    C39(37)   R22       18
    C39(37)   R23       13
    C39(37)   R24       4
    C39(37)   R25       9
    C39(37)   R26       16
    C39(37)   R27       16
    C39(37)   R28       18
    C39(37)   R29       14
    C39(37)   R30       15
    C39(37)   R31       10
    C39(37)   R32       9
    C39(37)   R33       18
    C39(37)   R35       10
    C39(37)   R36       9
    C39(37)   R37       12
    C39(37)   R39       13
    C40(1)    R1        1
    C41(1)    R2        1
    C42(1)    R3        1
    C43(1)    R4        1
    C44(1)    R5        1
    C45(1)    R6        1
    C46(1)    R7        1
    C47(1)    R8        1
    C48(1)    R9        1
    C49(1)    R10       1
    C50(1)    R11       1
    C51(1)    R12       1
    C52(1)    R13       1
    C53(1)    R14       1
    C54(1)    R15       1
    C55(1)    R16       1
    C56(1)    R17       1
    C57(1)    R18       1
    C58(1)    R19       1
    C59(1)    R20       1
    C60(1)    R21       1
    C61(1)    R22       1
    C62(1)    R23       1
    C63(1)    R24       1
    C64(1)    R25       1
    C65(1)    R26       1
    C66(1)    R27       1
    C67(1)    R28       1
    C68(1)    R29       1
    C69(1)    R30       1
    C70(1)    R31       1
    C71(1)    R32       1
    C72(1)    R33       1
    C73(1)    R34       1
    C74(1)    R35       1
    C75(1)    R36       1
    C76(1)    R37       1
    C77(1)    R38       1
    C78(1)    R39       1
    C79(1)    R40       1
RHS
    RHS1      R0        2.1738888888888889e+02
    RHS1      R1        96
    RHS1      R2        60
    RHS1      R3        55
    RHS1      R4        85
    RHS1      R5        58
    RHS1      R6        97
    RHS1      R7        50
    RHS1      R8        93
    RHS1      R9        84
    RHS1      R10       88
    RHS1      R11       86
    RHS1      R12       51
    RHS1      R13       84
    RHS1      R14       82
    RHS1      R15       76
    RHS1      R16       83
    RHS1      R17       64
    RHS1      R18       73
    RHS1      R19       89
    RHS1      R20       59
    RHS1      R21       67
    RHS1      R22       65
    RHS1      R23       96
    RHS1      R24       63
    RHS1      R25       93
    RHS1      R26       93
    RHS1      R27       80
    RHS1      R28       93
    RHS1      R29       77
    RHS1      R30       67
    RHS1      R31       96
    RHS1      R32       96
    RHS1      R33       65
    RHS1      R34       59
    RHS1      R35       66
    RHS1      R36       91
    RHS1      R37       93
    RHS1      R38       67
    RHS1      R39       60
    RHS1      R40       12
BOUNDS
 UP BND1      I0(3)     1
 UP BND1      I1(3)     1
 UP BND1      I2(3)     1
 UP BND1      I3(3)     1
 UP BND1      I4(3)     1
 UP BND1      I5(3)     1
 UP BND1      I6(3)     1
 UP BND1      I7(3)     1
 UP BND1      I8(3)     1
 UP BND1      I9(3)     1
 UP BND1      I10(3)    1
 UP BND1      I11(3)    1
 UP BND1      I12(3)    1
 UP BND1      I13(3)    1
 UP BND1      I14(3)    1
 UP BND1      I15(3)    1
 UP BND1      I16(3)    1
 UP BND1      I17(2)    1
 UP BND1      I18(3)    1
 UP BND1      I19(3)    1
 UP BND1      I20(3)    1
 UP BND1      I21(3)    1
 UP BND1      I22(3)    1
 UP BND1      I23(2)    1
 UP BND1      I24(3)    1
 UP BND1      I25(3)    1
 UP BND1      I26(3)    1
 UP BND1      I27(3)    1
 UP BND1      I28(3)    1
 UP BND1      I29(2)    1
 UP BND1      I30(3)    1
 UP BND1      I31(3)    1
 UP BND1      I32(3)    1
 UP BND1      I33(3)    1
 UP BND1      I34(3)    1
 UP BND1      I35(3)    1
 UP BND1      I36(3)    1
 UP BND1      I37(2)    1
ENDATA
